NAME:  br17a.06 
TYPE:  AHPP-TW 
COMMENT: br17.atsp + random time windows (N. Ascheuer, 1994) 
DIMENSION: 19 
EDGE_WEIGHT_TYPE: EXPLICIT 
EDGE_WEIGHT_FORMAT: FULL_MATRIX 
TIME_WINDOW_SECTION 
   1 :    0   [   0,    0]
   2 :   62   [   0,  110]
   3 :   63   [  20,  110]
   4 :   55   [   0, 9999999]
   5 :   60   [ 757,  873]
   6 :   42   [   0, 9999999]
   7 :   71   [ 594,  668]
   8 :   44   [   0, 9999999]
   9 :   69   [   0, 9999999]
  10 :   70   [   0, 9999999]
  11 :   56   [   0, 9999999]
  12 :   42   [   0, 9999999]
  13 :   65   [   0, 9999999]
  14 :   46   [   0, 9999999]
  15 :   65   [   0, 9999999]
  16 :   38   [ 650,  754]
  17 :   69   [ 690,  790]
  18 :   59   [   0, 9999999]
  19 :    0   [13333332, 19999998]
EDGE_WEIGHT_SECTION 
  0   0   0   0   0   0   0   0   0   0   0   0   0   0   0   0   0   0   0 
  0 9999   3   5  48  48   8   8   5   5   3   3   0   3   5   8   8   5   0 
  0   3 9999   3  48  48   8   8   5   5   0   0   3   0   3   8   8   5   0 
  0   5   3 9999  72  72  48  48  24  24   3   3   5   3   0  48  48  24   0 
  0  48  48  74 9999   0   6   6  12  12  48  48  48  48  74   6   6  12   0 
  0  48  48  74   0 9999   6   6  12  12  48  48  48  48  74   6   6  12   0 
  0   8   8  50   6   6 9999   0   8   8   8   8   8   8  50   0   0   8   0 
  0   8   8  50   6   6   0 9999   8   8   8   8   8   8  50   0   0   8   0 
  0   5   5  26  12  12   8   8 9999   0   5   5   5   5  26   8   8   0   0 
  0   5   5  26  12  12   8   8   0 9999   5   5   5   5  26   8   8   0   0 
  0   3   0   3  48  48   8   8   5   5 9999   0   3   0   3   8   8   5   0 
  0   3   0   3  48  48   8   8   5   5   0 9999   3   0   3   8   8   5   0 
  0   0   3   5  48  48   8   8   5   5   3   3 9999   3   5   8   8   5   0 
  0   3   0   3  48  48   8   8   5   5   0   0   3 9999   3   8   8   5   0 
  0   5   3   0  72  72  48  48  24  24   3   3   5   3 9999  48  48  24   0 
  0   8   8  50   6   6   0   0   8   8   8   8   8   8  50 9999   0   8   0 
  0   8   8  50   6   6   0   0   8   8   8   8   8   8  50   0 9999   8   0 
  0   5   5  26  12  12   8   8   0   0   5   5   5   5  26   8   8 9999   0 
  0   0   0   0   0   0   0   0   0   0   0   0   0   0   0   0   0   0   0 
EOF 
